benchmarks1/other_tools/Z3/check/ex2.txt
历时 0.386315 秒。
iteration 1
    "11.5989322625-2.79127296805*x2-1.70370898835*x1^2-5.4161199264*x2^2"

历时 0.810720 秒。
iteration 2
    "11.4797839897-2.78896439081*x2-1.88843396919*x1^2-5.32478968203*x2^2"

历时 1.138136 秒。
iteration 3
    "11.4754366504-2.78837587485*x2-1.8905984777*x1^2-5.32134223732*x2^2"

历时 1.497626 秒。
iteration 4
    "11.4753315224-2.7883590241*x2-1.89063898987*x1^2-5.32126122536*x2^2"

历时 1.875188 秒。
iteration 5
    "11.475329107-2.78835861448*x2-1.89063988902*x1^2-5.3212593842*x2^2"

历时 2.269671 秒。
iteration 6
    "11.4753290519-2.78835860495*x2-1.89063990939*x1^2-5.32125934234*x2^2"

历时 2.764580 秒。
iteration 7
    "11.4753290507-2.78835860474*x2-1.89063990985*x1^2-5.32125934141*x2^2"

历时 3.329300 秒。
iteration 8
    "11.4753290507-2.78835860474*x2-1.89063990986*x1^2-5.32125934142*x2^2"

历时 3.948485 秒。
iteration 9
    "11.4753290507-2.78835860475*x2-1.89063990986*x1^2-5.32125934143*x2^2"

历时 4.548820 秒。
iteration 10
    "11.4753290507-2.78835860474*x2-1.89063990986*x1^2-5.32125934141*x2^2"

历时 5.194907 秒。
iteration 11
    "11.4753290506-2.78835860473*x2-1.89063990986*x1^2-5.32125934137*x2^2"

历时 5.832471 秒。
iteration 12
    "11.4753290507-2.78835860474*x2-1.89063990986*x1^2-5.32125934141*x2^2"

历时 6.436469 秒。
iteration 13
    "11.4753290507-2.78835860474*x2-1.89063990986*x1^2-5.32125934141*x2^2"

历时 7.501217 秒。
iteration 14
    "11.4753290507-2.78835860474*x2-1.89063990987*x1^2-5.32125934142*x2^2"

历时 8.646574 秒。
iteration 15
    "11.4753290507-2.78835860474*x2-1.89063990986*x1^2-5.32125934141*x2^2"

历时 9.908687 秒。
iteration 16
    "11.4753290507-2.78835860474*x2-1.89063990986*x1^2-5.32125934141*x2^2"

历时 11.238750 秒。
iteration 17
    "11.4753290507-2.78835860474*x2-1.89063990986*x1^2-5.32125934141*x2^2"

历时 12.691635 秒。
iteration 18
    "11.4753290507-2.78835860474*x2-1.89063990987*x1^2-5.32125934143*x2^2"

历时 14.431200 秒。
iteration 19
    "11.4753290507-2.78835860474*x2-1.89063990986*x1^2-5.32125934142*x2^2"

历时 15.788605 秒。
iteration 20
    "11.4753290507-2.78835860474*x2-1.89063990986*x1^2-5.32125934141*x2^2"
